
Gurobi 11.0.3 (linux64) logging started Fri Nov 22 10:24:58 2024

Set parameter LogFile to value "/home/yihong/Coding/OR_SUC/SUC_results_bigM100000_thread4/case24_ieee_rts_theta0.1_epsilon0.05_gurobi_seed980000_num_gen100_N_WDR100_load_scaling_factor1_proposed_T24quadra_cost.txt"
Set parameter TimeLimit to value 3600
Gurobi Optimizer version 11.0.3 build v11.0.3rc0 (linux64 - "Ubuntu 20.04.6 LTS")

CPU model: AMD EPYC 7532 32-Core Processor, instruction set [SSE2|AVX|AVX2]
Thread count: 64 physical cores, 128 logical processors, using up to 4 threads

Optimize a model with 57558 rows, 29861 columns and 1315898 nonzeros
Model fingerprint: 0x3cf40eba
Model has 2400 quadratic constraints
Variable types: 27461 continuous, 2400 integer (2400 binary)
Coefficient statistics:
  Matrix range     [3e-04, 2e+03]
  QMatrix range    [2e-03, 8e-03]
  QLMatrix range   [2e-01, 6e+01]
  Objective range  [1e+00, 1e+00]
  Bounds range     [1e+00, 1e+00]
  RHS range        [1e+00, 9e+03]
Presolve removed 47062 rows and 12677 columns
Presolve time: 0.40s
Presolved: 10496 rows, 17184 columns, 58506 nonzeros
Presolved model has 2400 quadratic constraint(s)
Variable types: 14784 continuous, 2400 integer (2400 binary)

Root relaxation: objective 3.372129e+04, 8236 iterations, 0.24 seconds (0.34 work units)

    Nodes    |    Current Node    |     Objective Bounds      |     Work
 Expl Unexpl |  Obj  Depth IntInf | Incumbent    BestBd   Gap | It/Node Time

     0     0 33721.2862    0    -          - 33721.2862      -     -    0s
     0     0 296780.721    0  851          - 296780.721      -     -    1s
     0     0 575040.668    0  765          - 575040.668      -     -    1s
     0     0 575100.409    0  312          - 575100.409      -     -    1s
     0     0 575353.892    0  218          - 575353.892      -     -    1s
     0     0 575357.812    0  218          - 575357.812      -     -    2s
     0     0 575357.812    0  209          - 575357.812      -     -    2s
     0     0 575359.215    0  209          - 575359.215      -     -    2s
     0     2 575359.215    0  209          - 575359.215      -     -    2s
    83   149 575427.005   19  184          - 575368.385      -  47.6    5s
   943  1145 575764.983  139   15          - 575372.793      -  26.1   10s
H 1265   954                    575831.80976 575378.527  0.08%  25.3   10s
* 1265   954             194    575831.80976 575378.527  0.08%  25.3   10s

Cutting planes:
  Gomory: 160
  Lift-and-project: 2
  Implied bound: 308
  MIR: 199
  Flow cover: 410
  RLT: 185

Explored 1411 nodes (56959 simplex iterations) in 11.51 seconds (16.70 work units)
Thread count was 4 (of 128 available processors)

Solution count 2: 575832 575832 

Optimal solution found (tolerance 1.00e-03)
Warning: max constraint violation (2.7350e-07) exceeds tolerance
Best objective 5.758318097674e+05, best bound 5.753785272415e+05, gap 0.0787%
